n_res = 4;
rc = [ 12, 13, 4, 12 ];
n_tasks = 30;
d = [ 8, 4, 6, 3, 8, 5, 9, 2, 7, 9, 2, 6, 3, 9, 10, 6, 5, 3, 7, 2, 7, 2, 3, 3, 7, 8, 3, 7, 2, 2 ];
rr = [| 4, 10, 0, 3, 0, 4, 0, 6, 0, 0, 0, 4, 0, 3, 0, 0, 0, 0, 0, 0, 2, 3, 0, 4, 0, 0, 0, 0, 0, 0
      | 0, 0, 0, 0, 0, 0, 1, 0, 0, 5, 7, 0, 8, 0, 0, 0, 0, 1, 10, 0, 0, 0, 9, 0, 0, 0, 8, 7, 7, 0
      | 0, 0, 0, 0, 0, 0, 0, 0, 0, 0, 0, 0, 0, 0, 0, 0, 0, 0, 0, 0, 0, 0, 0, 0, 4, 0, 0, 0, 0, 2
      | 0, 0, 3, 0, 8, 0, 0, 0, 1, 0, 0, 0, 0, 0, 5, 8, 7, 0, 0, 6, 0, 0, 0, 0, 0, 7, 0, 0, 0, 0 |];
suc = [ { 2 }, 
        { 3 }, 
        { 4 }, 
        { 5 }, 
        { 6 }, 
        { 7 }, 
        { 8 }, 
        { 9 }, 
        { 10 }, 
        { 11 }, 
        { 12 }, 
        { 13 }, 
        { 14 }, 
        { 15 }, 
        { 16 }, 
        { 17 }, 
        { 18 }, 
        { 19 }, 
        { 20 }, 
        { 21 }, 
        { 22 }, 
        { 23 }, 
        { 24 }, 
        { 25 }, 
        { 26 }, 
        { 27 }, 
        { 28 }, 
        { 29 }, 
        { 30 }, 
        {  }]; 
